As Ga
 1.0000000000000000
     4.0000000000000000    0.0000000000000000    0.0000000000000000
    -2.0000000000000000    3.4641016151377540    0.0000000000000000
     0.0000000000000000    0.0000000000000000    6.5000000000000000
 As  Ga
   2   2
Direct
  0.3333333333333333  0.6666666666666666  0.0000000000000000
  0.6666666666666667  0.3333333333333333  0.5000000000000000
  0.3333333333333333  0.6666666666666666  0.3750000000000000
  0.6666666666666667  0.3333333333333333  0.8750000000000000