As Ga
 1.0000000000000000
     5.6096428571428580    0.0000000000000000    0.0000000000000000
     0.0000000000000000    5.6096428571428580    0.0000000000000000
     0.0000000000000000    0.0000000000000000    5.6096428571428580
 As  Ga 
   4   4
Direct
  0.0000000000000000  0.0000000000000000  0.0000000000000000
  0.0000000000000000  0.5000000000000000  0.5000000000000000
  0.5000000000000000  0.0000000000000000  0.5000000000000000
  0.5000000000000000  0.5000000000000000  0.0000000000000000
  0.2500000000000000  0.2500000000000000  0.2500000000000000
  0.2500000000000000  0.7500000000000001  0.7500000000000001
  0.7500000000000001  0.2500000000000000  0.7500000000000001
  0.7500000000000001  0.7500000000000001  0.2500000000000000
